(declare-sort $$unsorted 0)
(declare-fun tptp.op ($$unsorted $$unsorted) $$unsorted)
(assert (forall ((X0 $$unsorted) (X1 $$unsorted) (X2 $$unsorted)) (= X0 (tptp.op (tptp.op X1 X0) (tptp.op (tptp.op X1 X2) X0)))))
(assert (not (forall ((X0 $$unsorted) (X1 $$unsorted) (X2 $$unsorted)) (= (tptp.op X0 X0) (tptp.op (tptp.op X1 (tptp.op X1 X0)) X0)))))
(set-info :filename Equation1697_implies_Equation3887)
(check-sat-assuming ( true ))
